param N := 4;
param M := 50;

param nu := 100;

param X : 1 2 3 4 :=
1 5.7 2.8 4.1 1.3
2 5.1 3.3 1.7 0.5
3 6.6 3.0 4.4 1.4
4 5.0 3.2 1.2 0.2
5 4.4 3.0 1.3 0.2
6 6.1 2.8 4.0 1.3
7 4.9 2.4 3.3 1.0
8 5.5 2.4 3.7 1.0
9 7.0 3.2 4.7 1.4
10 4.6 3.1 1.5 0.2
11 4.9 3.1 1.5 0.1
12 5.4 3.4 1.5 0.4
13 5.5 4.2 1.4 0.2
14 5.9 3.0 4.2 1.5
15 4.5 2.3 1.3 0.3
16 4.6 3.6 1.0 0.2
17 5.5 2.5 4.0 1.3
18 4.7 3.2 1.3 0.2
19 4.8 3.4 1.9 0.2
20 6.0 2.7 5.1 1.6
21 5.5 2.3 4.0 1.3
22 6.2 2.2 4.5 1.5
23 5.7 4.4 1.5 0.4
24 6.1 2.9 4.7 1.4
25 5.7 2.6 3.5 1.0
26 5.8 2.6 4.0 1.2
27 5.4 3.0 4.5 1.5
28 5.8 4.0 1.2 0.2
29 4.4 2.9 1.4 0.2
30 5.2 4.1 1.5 0.1
31 5.0 3.4 1.6 0.4
32 5.1 3.7 1.5 0.4
33 5.3 3.7 1.5 0.2
34 6.8 2.8 4.8 1.4
35 5.0 3.0 1.6 0.2
36 6.0 3.4 4.5 1.6
37 5.5 2.6 4.4 1.2
38 5.8 2.7 3.9 1.2
39 4.9 3.1 1.5 0.1
40 5.0 3.5 1.3 0.3
41 5.6 2.7 4.2 1.3
42 5.7 2.9 4.2 1.3
43 5.7 2.8 4.5 1.3
44 4.9 3.0 1.4 0.2
45 5.1 2.5 3.0 1.1
46 5.4 3.9 1.3 0.4
47 5.4 3.4 1.7 0.2
48 5.6 3.0 4.5 1.5
49 5.0 3.3 1.4 0.2
50 5.1 3.8 1.5 0.3
;

param y :=
1 -1.0
2 1.0
3 -1.0
4 1.0
5 1.0
6 -1.0
7 -1.0
8 -1.0
9 -1.0
10 1.0
11 1.0
12 1.0
13 1.0
14 -1.0
15 1.0
16 1.0
17 -1.0
18 1.0
19 1.0
20 -1.0
21 -1.0
22 -1.0
23 1.0
24 -1.0
25 -1.0
26 -1.0
27 -1.0
28 1.0
29 1.0
30 1.0
31 1.0
32 1.0
33 1.0
34 -1.0
35 1.0
36 -1.0
37 -1.0
38 -1.0
39 1.0
40 1.0
41 -1.0
42 -1.0
43 -1.0
44 1.0
45 -1.0
46 1.0
47 1.0
48 -1.0
49 1.0
50 1.0
;

